c generated by sgen3tocnf
c nLits = 612
c actual nVars = 97
c Command: sgen3tocnf 024 0 2 24 97 4 2 0 /dev/null
p cnf 97 204
-1 -9 -53 0
-1 -9 -85 0
-1 -53 -85 0
-9 -53 -85 0
-37 -41 -54 0
-37 -41 -89 0
-37 -54 -89 0
-41 -54 -89 0
-10 -21 -49 0
-10 -21 -57 0
-10 -49 -57 0
-21 -49 -57 0
-2 -38 -65 0
-2 -38 -81 0
-2 -65 -81 0
-38 -65 -81 0
-22 -61 -69 0
-22 -61 -82 0
-22 -69 -82 0
-61 -69 -82 0
-62 -73 -77 0
-62 -73 -93 0
-62 -77 -93 0
-73 -77 -93 0
-5 -58 -78 0
-5 -58 -83 0
-5 -78 -83 0
-58 -78 -83 0
-25 -33 -42 0
-25 -33 -50 0
-25 -42 -50 0
-33 -42 -50 0
-11 -34 -70 0
-11 -34 -94 0
-11 -70 -94 0
-34 -70 -94 0
-13 -35 -55 0
-13 -35 -63 0
-13 -55 -63 0
-35 -55 -63 0
-17 -29 -56 0
-17 -29 -84 0
-17 -56 -84 0
-29 -56 -84 0
-3 -14 -18 0
-3 -14 -26 0
-3 -18 -26 0
-14 -18 -26 0
-6 -15 -66 0
-6 -15 -74 0
-6 -66 -74 0
-15 -66 -74 0
-39 -45 -71 0
-39 -45 -75 0
-39 -71 -75 0
-45 -71 -75 0
-4 -43 -46 0
-4 -43 -59 0
-4 -46 -59 0
-43 -46 -59 0
-19 -60 -76 0
-19 -60 -90 0
-19 -76 -90 0
-60 -76 -90 0
-16 -47 -51 0
-16 -47 -79 0
-16 -51 -79 0
-47 -51 -79 0
-12 -20 -64 0
-12 -20 -67 0
-12 -64 -67 0
-20 -64 -67 0
-7 -23 -36 0
-7 -23 -91 0
-7 -36 -91 0
-23 -36 -91 0
-27 -48 -86 0
-27 -48 -92 0
-27 -86 -92 0
-48 -86 -92 0
-24 -30 -80 0
-24 -30 -87 0
-24 -80 -87 0
-30 -80 -87 0
-28 -31 -68 0
-28 -31 -95 0
-28 -68 -95 0
-31 -68 -95 0
-8 -44 -72 0
-8 -44 -88 0
-8 -72 -88 0
-44 -72 -88 0
-32 -40 -52 0
-32 -40 -96 0
-32 -40 -97 0
-32 -52 -96 0
-32 -52 -97 0
-32 -96 -97 0
-40 -52 -96 0
-40 -52 -97 0
-40 -96 -97 0
-52 -96 -97 0
1 2 3 0
1 2 4 0
1 3 4 0
2 3 4 0
5 6 7 0
5 6 8 0
5 6 97 0
5 7 8 0
5 7 97 0
5 8 97 0
6 7 8 0
6 7 97 0
6 8 97 0
7 8 97 0
9 10 11 0
9 10 12 0
9 11 12 0
10 11 12 0
13 14 15 0
13 14 16 0
13 15 16 0
14 15 16 0
17 18 19 0
17 18 20 0
17 19 20 0
18 19 20 0
21 22 23 0
21 22 24 0
21 23 24 0
22 23 24 0
25 26 27 0
25 26 28 0
25 27 28 0
26 27 28 0
29 30 31 0
29 30 32 0
29 31 32 0
30 31 32 0
33 34 35 0
33 34 36 0
33 35 36 0
34 35 36 0
37 38 39 0
37 38 40 0
37 39 40 0
38 39 40 0
41 42 43 0
41 42 44 0
41 43 44 0
42 43 44 0
45 46 47 0
45 46 48 0
45 47 48 0
46 47 48 0
49 50 51 0
49 50 52 0
49 51 52 0
50 51 52 0
53 54 55 0
53 54 56 0
53 55 56 0
54 55 56 0
57 58 59 0
57 58 60 0
57 59 60 0
58 59 60 0
61 62 63 0
61 62 64 0
61 63 64 0
62 63 64 0
65 66 67 0
65 66 68 0
65 67 68 0
66 67 68 0
69 70 71 0
69 70 72 0
69 71 72 0
70 71 72 0
73 74 75 0
73 74 76 0
73 75 76 0
74 75 76 0
77 78 79 0
77 78 80 0
77 79 80 0
78 79 80 0
81 82 83 0
81 82 84 0
81 83 84 0
82 83 84 0
85 86 87 0
85 86 88 0
85 87 88 0
86 87 88 0
89 90 91 0
89 90 92 0
89 91 92 0
90 91 92 0
93 94 95 0
93 94 96 0
93 95 96 0
94 95 96 0
